90 4005
1 2 241
1 3 173
1 4 59
1 5 96
1 6 84
1 7 239
1 8 120
1 9 151
1 10 195
1 11 199
1 12 67
1 13 227
1 14 109
1 15 245
1 16 100
1 17 57
1 18 257
1 19 14
1 20 120
1 21 213
1 22 96
1 23 72
1 24 189
1 25 72
1 26 86
1 27 242
1 28 144
1 29 116
1 30 50
1 31 18
1 32 92
1 33 1
1 34 63
1 35 140
1 36 66
1 37 8
1 38 233
1 39 164
1 40 34
1 41 10
1 42 116
1 43 119
1 44 53
1 45 21
1 46 209
1 47 123
1 48 235
1 49 255
1 50 220
1 51 104
1 52 249
1 53 40
1 54 74
1 55 249
1 56 227
1 57 62
1 58 101
1 59 25
1 60 21
1 61 72
1 62 42
1 63 132
1 64 255
1 65 121
1 66 31
1 67 247
1 68 22
1 69 141
1 70 222
1 71 178
1 72 197
1 73 4
1 74 267
1 75 40
1 76 164
1 77 194
1 78 210
1 79 234
1 80 158
1 81 188
1 82 121
1 83 99
1 84 147
1 85 75
1 86 167
1 87 177
1 88 126
1 89 29
1 90 180
2 3 198
2 4 184
2 5 0
2 6 229
2 7 177
2 8 112
2 9 198
2 10 89
2 11 214
2 12 138
2 13 180
2 14 80
2 15 53
2 16 100
2 17 226
2 18 260
2 19 89
2 20 215
2 21 127
2 22 138
2 23 199
2 24 99
2 25 118
2 26 248
2 27 128
2 28 150
2 29 26
2 30 170
2 31 70
2 32 255
2 33 31
2 34 31
2 35 200
2 36 10
2 37 209
2 38 130
2 39 27
2 40 148
2 41 104
2 42 123
2 43 129
2 44 262
2 45 37
2 46 178
2 47 26
2 48 1
2 49 60
2 50 17
2 51 242
2 52 56
2 53 239
2 54 63
2 55 154
2 56 103
2 57 13
2 58 60
2 59 59
2 60 59
2 61 160
2 62 58
2 63 191
2 64 22
2 65 185
2 66 11
2 67 92
2 68 259
2 69 39
2 70 261
2 71 48
2 72 23
2 73 95
2 74 261
2 75 225
2 76 245
2 77 27
2 78 136
2 79 192
2 80 194
2 81 106
2 82 155
2 83 89
2 84 24
2 85 47
2 86 42
2 87 89
2 88 108
2 89 150
2 90 51
3 4 143
3 5 0
3 6 19
3 7 132
3 8 200
3 9 8
3 10 158
3 11 251
3 12 2
3 13 147
3 14 193
3 15 163
3 16 168
3 17 223
3 18 199
3 19 126
3 20 54
3 21 25
3 22 97
3 23 77
3 24 29
3 25 167
3 26 26
3 27 251
3 28 178
3 29 142
3 30 160
3 31 1
3 32 95
3 33 154
3 34 205
3 35 200
3 36 94
3 37 268
3 38 177
3 39 84
3 40 183
3 41 183
3 42 155
3 43 70
3 44 163
3 45 178
3 46 23
3 47 20
3 48 6
3 49 255
3 50 249
3 51 119
3 52 28
3 53 259
3 54 13
3 55 39
3 56 52
3 57 221
3 58 169
3 59 126
3 60 105
3 61 174
3 62 89
3 63 189
3 64 136
3 65 255
3 66 208
3 67 248
3 68 111
3 69 128
3 70 111
3 71 148
3 72 34
3 73 28
3 74 125
3 75 224
3 76 142
3 77 27
3 78 211
3 79 228
3 80 62
3 81 247
3 82 203
3 83 58
3 84 90
3 85 24
3 86 186
3 87 146
3 88 187
3 89 182
3 90 108
4 5 179
4 6 15
4 7 94
4 8 158
4 9 257
4 10 48
4 11 57
4 12 41
4 13 73
4 14 264
4 15 9
4 16 258
4 17 13
4 18 75
4 19 259
4 20 128
4 21 258
4 22 186
4 23 79
4 24 201
4 25 14
4 26 55
4 27 261
4 28 228
4 29 12
4 30 205
4 31 155
4 32 89
4 33 193
4 34 267
4 35 98
4 36 95
4 37 96
4 38 17
4 39 140
4 40 255
4 41 152
4 42 44
4 43 253
4 44 218
4 45 166
4 46 17
4 47 264
4 48 249
4 49 147
4 50 156
4 51 4
4 52 263
4 53 171
4 54 217
4 55 168
4 56 26
4 57 240
4 58 32
4 59 65
4 60 210
4 61 72
4 62 124
4 63 92
4 64 92
4 65 30
4 66 84
4 67 60
4 68 140
4 69 12
4 70 149
4 71 194
4 72 210
4 73 111
4 74 65
4 75 184
4 76 132
4 77 31
4 78 268
4 79 7
4 80 72
4 81 169
4 82 154
4 83 240
4 84 51
4 85 197
4 86 213
4 87 115
4 88 91
4 89 241
4 90 184
5 6 234
5 7 160
5 8 249
5 9 260
5 10 16
5 11 93
5 12 168
5 13 60
5 14 112
5 15 30
5 16 220
5 17 244
5 18 150
5 19 4
5 20 75
5 21 33
5 22 195
5 23 242
5 24 170
5 25 115
5 26 216
5 27 162
5 28 54
5 29 242
5 30 215
5 31 34
5 32 12
5 33 121
5 34 79
5 35 269
5 36 69
5 37 161
5 38 151
5 39 144
5 40 259
5 41 45
5 42 133
5 43 150
5 44 101
5 45 63
5 46 27
5 47 113
5 48 48
5 49 130
5 50 130
5 51 16
5 52 26
5 53 77
5 54 24
5 55 56
5 56 30
5 57 103
5 58 159
5 59 224
5 60 163
5 61 263
5 62 110
5 63 134
5 64 207
5 65 95
5 66 268
5 67 2
5 68 232
5 69 195
5 70 69
5 71 109
5 72 42
5 73 176
5 74 220
5 75 102
5 76 160
5 77 21
5 78 156
5 79 220
5 80 138
5 81 45
5 82 165
5 83 214
5 84 76
5 85 43
5 86 9
5 87 70
5 88 89
5 89 188
5 90 105
6 7 161
6 8 93
6 9 219
6 10 265
6 11 34
6 12 55
6 13 87
6 14 211
6 15 84
6 16 199
6 17 4
6 18 59
6 19 106
6 20 151
6 21 17
6 22 152
6 23 52
6 24 262
6 25 103
6 26 190
6 27 17
6 28 131
6 29 250
6 30 113
6 31 265
6 32 224
6 33 6
6 34 135
6 35 260
6 36 157
6 37 185
6 38 269
6 39 82
6 40 172
6 41 51
6 42 186
6 43 44
6 44 208
6 45 244
6 46 13
6 47 244
6 48 257
6 49 27
6 50 63
6 51 222
6 52 120
6 53 155
6 54 103
6 55 167
6 56 256
6 57 251
6 58 197
6 59 176
6 60 264
6 61 84
6 62 12
6 63 2
6 64 251
6 65 147
6 66 191
6 67 200
6 68 263
6 69 84
6 70 148
6 71 250
6 72 77
6 73 10
6 74 122
6 75 100
6 76 265
6 77 188
6 78 162
6 79 179
6 80 208
6 81 215
6 82 177
6 83 98
6 84 152
6 85 60
6 86 153
6 87 114
6 88 261
6 89 209
6 90 5
7 8 62
7 9 70
7 10 154
7 11 63
7 12 171
7 13 99
7 14 130
7 15 171
7 16 39
7 17 197
7 18 114
7 19 210
7 20 110
7 21 106
7 22 89
7 23 79
7 24 164
7 25 5
7 26 247
7 27 267
7 28 114
7 29 200
7 30 96
7 31 142
7 32 241
7 33 11
7 34 75
7 35 31
7 36 115
7 37 99
7 38 190
7 39 202
7 40 263
7 41 103
7 42 160
7 43 213
7 44 124
7 45 37
7 46 98
7 47 91
7 48 127
7 49 222
7 50 263
7 51 95
7 52 159
7 53 50
7 54 33
7 55 49
7 56 207
7 57 82
7 58 67
7 59 63
7 60 10
7 61 227
7 62 58
7 63 184
7 64 227
7 65 130
7 66 18
7 67 34
7 68 245
7 69 149
7 70 258
7 71 204
7 72 61
7 73 250
7 74 4
7 75 227
7 76 164
7 77 57
7 78 185
7 79 234
7 80 231
7 81 22
7 82 175
7 83 196
7 84 17
7 85 73
7 86 264
7 87 17
7 88 181
7 89 81
7 90 183
8 9 247
8 10 42
8 11 152
8 12 99
8 13 94
8 14 183
8 15 261
8 16 113
8 17 56
8 18 102
8 19 111
8 20 217
8 21 55
8 22 191
8 23 114
8 24 128
8 25 261
8 26 208
8 27 207
8 28 112
8 29 163
8 30 173
8 31 213
8 32 42
8 33 269
8 34 162
8 35 203
8 36 239
8 37 46
8 38 186
8 39 43
8 40 30
8 41 237
8 42 157
8 43 103
8 44 202
8 45 258
8 46 124
8 47 162
8 48 236
8 49 18
8 50 213
8 51 94
8 52 44
8 53 53
8 54 86
8 55 129
8 56 85
8 57 240
8 58 171
8 59 237
8 60 102
8 61 123
8 62 219
8 63 52
8 64 258
8 65 135
8 66 235
8 67 269
8 68 21
8 69 258
8 70 121
8 71 170
8 72 191
8 73 31
8 74 149
8 75 154
8 76 138
8 77 25
8 78 82
8 79 10
8 80 228
8 81 137
8 82 114
8 83 148
8 84 111
8 85 102
8 86 179
8 87 100
8 88 64
8 89 101
8 90 113
9 10 109
9 11 212
9 12 145
9 13 39
9 14 132
9 15 58
9 16 6
9 17 263
9 18 80
9 19 49
9 20 45
9 21 64
9 22 266
9 23 219
9 24 130
9 25 84
9 26 124
9 27 255
9 28 190
9 29 206
9 30 122
9 31 17
9 32 243
9 33 210
9 34 196
9 35 268
9 36 254
9 37 150
9 38 259
9 39 222
9 40 142
9 41 1
9 42 89
9 43 74
9 44 28
9 45 264
9 46 154
9 47 243
9 48 52
9 49 159
9 50 163
9 51 0
9 52 83
9 53 237
9 54 238
9 55 202
9 56 180
9 57 15
9 58 60
9 59 253
9 60 123
9 61 35
9 62 246
9 63 90
9 64 53
9 65 27
9 66 251
9 67 200
9 68 91
9 69 106
9 70 121
9 71 93
9 72 40
9 73 170
9 74 190
9 75 83
9 76 176
9 77 105
9 78 220
9 79 140
9 80 36
9 81 143
9 82 148
9 83 116
9 84 264
9 85 11
9 86 96
9 87 255
9 88 21
9 89 69
9 90 54
10 11 167
10 12 184
10 13 192
10 14 169
10 15 86
10 16 232
10 17 82
10 18 157
10 19 96
10 20 262
10 21 15
10 22 87
10 23 31
10 24 101
10 25 201
10 26 162
10 27 133
10 28 8
10 29 159
10 30 124
10 31 66
10 32 101
10 33 52
10 34 251
10 35 145
10 36 81
10 37 214
10 38 35
10 39 146
10 40 159
10 41 85
10 42 200
10 43 117
10 44 59
10 45 68
10 46 1
10 47 264
10 48 71
10 49 212
10 50 18
10 51 46
10 52 46
10 53 263
10 54 229
10 55 136
10 56 192
10 57 25
10 58 227
10 59 4
10 60 146
10 61 186
10 62 100
10 63 258
10 64 72
10 65 173
10 66 131
10 67 215
10 68 256
10 69 148
10 70 51
10 71 213
10 72 191
10 73 83
10 74 6
10 75 19
10 76 163
10 77 60
10 78 148
10 79 94
10 80 143
10 81 230
10 82 155
10 83 129
10 84 106
10 85 8
10 86 155
10 87 10
10 88 194
10 89 120
10 90 67
11 12 106
11 13 138
11 14 190
11 15 260
11 16 194
11 17 237
11 18 66
11 19 207
11 20 234
11 21 113
11 22 185
11 23 140
11 24 51
11 25 18
11 26 50
11 27 232
11 28 123
11 29 66
11 30 182
11 31 3
11 32 51
11 33 127
11 34 169
11 35 79
11 36 128
11 37 115
11 38 29
11 39 17
11 40 196
11 41 250
11 42 175
11 43 15
11 44 248
11 45 125
11 46 34
11 47 122
11 48 155
11 49 133
11 50 235
11 51 252
11 52 82
11 53 115
11 54 77
11 55 152
11 56 192
11 57 209
11 58 143
11 59 28
11 60 49
11 61 124
11 62 183
11 63 198
11 64 149
11 65 27
11 66 182
11 67 168
11 68 110
11 69 255
11 70 113
11 71 61
11 72 36
11 73 74
11 74 218
11 75 258
11 76 215
11 77 46
11 78 43
11 79 12
11 80 195
11 81 11
11 82 42
11 83 98
11 84 193
11 85 100
11 86 247
11 87 189
11 88 196
11 89 8
11 90 243
12 13 48
12 14 223
12 15 56
12 16 108
12 17 77
12 18 222
12 19 89
12 20 36
12 21 120
12 22 181
12 23 195
12 24 216
12 25 266
12 26 60
12 27 241
12 28 90
12 29 195
12 30 32
12 31 244
12 32 103
12 33 12
12 34 4
12 35 40
12 36 40
12 37 92
12 38 45
12 39 89
12 40 233
12 41 6
12 42 97
12 43 247
12 44 76
12 45 191
12 46 14
12 47 88
12 48 148
12 49 60
12 50 22
12 51 95
12 52 55
12 53 95
12 54 10
12 55 167
12 56 80
12 57 202
12 58 258
12 59 37
12 60 36
12 61 147
12 62 142
12 63 232
12 64 265
12 65 201
12 66 45
12 67 37
12 68 158
12 69 125
12 70 247
12 71 217
12 72 47
12 73 116
12 74 218
12 75 25
12 76 8
12 77 158
12 78 26
12 79 67
12 80 135
12 81 57
12 82 103
12 83 182
12 84 257
12 85 233
12 86 69
12 87 116
12 88 44
12 89 244
12 90 238
13 14 211
13 15 213
13 16 108
13 17 207
13 18 228
13 19 42
13 20 108
13 21 193
13 22 142
13 23 206
13 24 70
13 25 67
13 26 36
13 27 83
13 28 104
13 29 225
13 30 71
13 31 134
13 32 68
13 33 196
13 34 31
13 35 145
13 36 112
13 37 41
13 38 228
13 39 187
13 40 267
13 41 67
13 42 159
13 43 251
13 44 148
13 45 83
13 46 159
13 47 233
13 48 67
13 49 100
13 50 214
13 51 17
13 52 55
13 53 21
13 54 144
13 55 228
13 56 184
13 57 171
13 58 58
13 59 19
13 60 30
13 61 30
13 62 33
13 63 36
13 64 65
13 65 255
13 66 238
13 67 177
13 68 71
13 69 18
13 70 183
13 71 113
13 72 63
13 73 115
13 74 201
13 75 217
13 76 120
13 77 3
13 78 21
13 79 23
13 80 267
13 81 52
13 82 87
13 83 28
13 84 130
13 85 178
13 86 136
13 87 206
13 88 171
13 89 163
13 90 140
14 15 101
14 16 136
14 17 243
14 18 0
14 19 245
14 20 207
14 21 175
14 22 37
14 23 36
14 24 179
14 25 166
14 26 259
14 27 159
14 28 262
14 29 219
14 30 116
14 31 63
14 32 22
14 33 25
14 34 194
14 35 20
14 36 93
14 37 71
14 38 57
14 39 195
14 40 143
14 41 247
14 42 31
14 43 61
14 44 38
14 45 3
14 46 116
14 47 155
14 48 266
14 49 11
14 50 210
14 51 164
14 52 76
14 53 108
14 54 53
14 55 249
14 56 267
14 57 29
14 58 192
14 59 169
14 60 57
14 61 250
14 62 113
14 63 72
14 64 155
14 65 137
14 66 10
14 67 77
14 68 171
14 69 94
14 70 178
14 71 126
14 72 28
14 73 189
14 74 161
14 75 77
14 76 51
14 77 83
14 78 94
14 79 15
14 80 194
14 81 171
14 82 86
14 83 60
14 84 124
14 85 268
14 86 127
14 87 109
14 88 111
14 89 238
14 90 78
15 16 252
15 17 33
15 18 48
15 19 63
15 20 249
15 21 6
15 22 196
15 23 145
15 24 140
15 25 223
15 26 246
15 27 199
15 28 233
15 29 109
15 30 249
15 31 6
15 32 143
15 33 209
15 34 120
15 35 198
15 36 238
15 37 254
15 38 61
15 39 71
15 40 224
15 41 214
15 42 197
15 43 8
15 44 45
15 45 157
15 46 47
15 47 132
15 48 31
15 49 242
15 50 109
15 51 152
15 52 108
15 53 57
15 54 207
15 55 48
15 56 195
15 57 103
15 58 101
15 59 259
15 60 77
15 61 238
15 62 42
15 63 6
15 64 182
15 65 203
15 66 38
15 67 6
15 68 166
15 69 205
15 70 74
15 71 76
15 72 111
15 73 77
15 74 2
15 75 123
15 76 2
15 77 111
15 78 74
15 79 92
15 80 82
15 81 230
15 82 28
15 83 120
15 84 214
15 85 255
15 86 11
15 87 140
15 88 54
15 89 241
15 90 101
16 17 26
16 18 12
16 19 152
16 20 116
16 21 209
16 22 221
16 23 91
16 24 86
16 25 163
16 26 52
16 27 123
16 28 192
16 29 61
16 30 88
16 31 117
16 32 175
16 33 142
16 34 44
16 35 104
16 36 195
16 37 181
16 38 203
16 39 120
16 40 19
16 41 180
16 42 245
16 43 5
16 44 14
16 45 33
16 46 264
16 47 105
16 48 3
16 49 67
16 50 194
16 51 124
16 52 132
16 53 112
16 54 8
16 55 187
16 56 165
16 57 134
16 58 136
16 59 1
16 60 101
16 61 148
16 62 204
16 63 212
16 64 8
16 65 222
16 66 117
16 67 162
16 68 4
16 69 133
16 70 256
16 71 161
16 72 117
16 73 24
16 74 258
16 75 23
16 76 64
16 77 135
16 78 216
16 79 203
16 80 211
16 81 138
16 82 251
16 83 195
16 84 184
16 85 112
16 86 174
16 87 94
16 88 208
16 89 139
16 90 233
17 18 42
17 19 225
17 20 268
17 21 94
17 22 160
17 23 187
17 24 187
17 25 236
17 26 237
17 27 22
17 28 52
17 29 42
17 30 85
17 31 4
17 32 231
17 33 158
17 34 191
17 35 38
17 36 20
17 37 63
17 38 195
17 39 55
17 40 246
17 41 184
17 42 137
17 43 167
17 44 58
17 45 269
17 46 100
17 47 148
17 48 32
17 49 9
17 50 95
17 51 253
17 52 268
17 53 157
17 54 213
17 55 109
17 56 150
17 57 248
17 58 137
17 59 21
17 60 100
17 61 31
17 62 17
17 63 153
17 64 121
17 65 9
17 66 65
17 67 84
17 68 177
17 69 156
17 70 230
17 71 222
17 72 87
17 73 111
17 74 13
17 75 191
17 76 145
17 77 24
17 78 131
17 79 151
17 80 9
17 81 22
17 82 103
17 83 32
17 84 138
17 85 71
17 86 104
17 87 249
17 88 201
17 89 18
17 90 74
18 19 114
18 20 49
18 21 108
18 22 121
18 23 149
18 24 244
18 25 175
18 26 144
18 27 84
18 28 35
18 29 95
18 30 9
18 31 139
18 32 92
18 33 107
18 34 268
18 35 72
18 36 269
18 37 93
18 38 60
18 39 130
18 40 55
18 41 69
18 42 101
18 43 195
18 44 257
18 45 255
18 46 53
18 47 184
18 48 199
18 49 80
18 50 193
18 51 104
18 52 103
18 53 227
18 54 71
18 55 220
18 56 25
18 57 64
18 58 14
18 59 147
18 60 250
18 61 266
18 62 252
18 63 34
18 64 210
18 65 19
18 66 73
18 67 23
18 68 87
18 69 20
18 70 136
18 71 107
18 72 88
18 73 57
18 74 192
18 75 45
18 76 72
18 77 0
18 78 255
18 79 250
18 80 136
18 81 212
18 82 167
18 83 169
18 84 138
18 85 163
18 86 90
18 87 9
18 88 76
18 89 253
18 90 16
19 20 221
19 21 46
19 22 63
19 23 144
19 24 27
19 25 198
19 26 151
19 27 95
19 28 95
19 29 132
19 30 106
19 31 17
19 32 4
19 33 164
19 34 119
19 35 17
19 36 175
19 37 127
19 38 183
19 39 189
19 40 33
19 41 196
19 42 90
19 43 178
19 44 35
19 45 79
19 46 138
19 47 146
19 48 67
19 49 116
19 50 196
19 51 137
19 52 20
19 53 172
19 54 26
19 55 69
19 56 159
19 57 25
19 58 186
19 59 102
19 60 24
19 61 223
19 62 59
19 63 116
19 64 220
19 65 74
19 66 9
19 67 124
19 68 250
19 69 204
19 70 95
19 71 145
19 72 174
19 73 239
19 74 202
19 75 129
19 76 226
19 77 150
19 78 249
19 79 204
19 80 256
19 81 245
19 82 74
19 83 181
19 84 188
19 85 22
19 86 98
19 87 62
19 88 251
19 89 85
19 90 227
20 21 144
20 22 9
20 23 108
20 24 17
20 25 240
20 26 155
20 27 78
20 28 3
20 29 130
20 30 256
20 31 193
20 32 2
20 33 7
20 34 76
20 35 220
20 36 64
20 37 44
20 38 134
20 39 3
20 40 147
20 41 227
20 42 127
20 43 8
20 44 205
20 45 13
20 46 145
20 47 126
20 48 222
20 49 184
20 50 54
20 51 130
20 52 17
20 53 71
20 54 237
20 55 231
20 56 222
20 57 73
20 58 135
20 59 57
20 60 28
20 61 36
20 62 86
20 63 184
20 64 31
20 65 1
20 66 130
20 67 245
20 68 95
20 69 77
20 70 148
20 71 252
20 72 180
20 73 156
20 74 27
20 75 100
20 76 86
20 77 97
20 78 249
20 79 232
20 80 131
20 81 81
20 82 163
20 83 106
20 84 24
20 85 236
20 86 166
20 87 88
20 88 44
20 89 244
20 90 255
21 22 38
21 23 58
21 24 65
21 25 135
21 26 221
21 27 195
21 28 11
21 29 35
21 30 198
21 31 80
21 32 94
21 33 117
21 34 265
21 35 133
21 36 70
21 37 184
21 38 181
21 39 4
21 40 218
21 41 263
21 42 53
21 43 138
21 44 150
21 45 33
21 46 150
21 47 42
21 48 145
21 49 18
21 50 227
21 51 60
21 52 157
21 53 35
21 54 252
21 55 92
21 56 185
21 57 168
21 58 234
21 59 238
21 60 18
21 61 171
21 62 166
21 63 156
21 64 193
21 65 149
21 66 261
21 67 72
21 68 124
21 69 49
21 70 110
21 71 141
21 72 262
21 73 193
21 74 65
21 75 185
21 76 166
21 77 139
21 78 67
21 79 157
21 80 159
21 81 188
21 82 17
21 83 248
21 84 27
21 85 199
21 86 70
21 87 196
21 88 0
21 89 206
21 90 96
22 23 241
22 24 74
22 25 265
22 26 211
22 27 116
22 28 37
22 29 238
22 30 246
22 31 139
22 32 241
22 33 104
22 34 199
22 35 214
22 36 62
22 37 86
22 38 145
22 39 175
22 40 108
22 41 55
22 42 150
22 43 29
22 44 78
22 45 156
22 46 133
22 47 141
22 48 243
22 49 214
22 50 112
22 51 99
22 52 31
22 53 25
22 54 24
22 55 3
22 56 235
22 57 230
22 58 202
22 59 24
22 60 222
22 61 173
22 62 249
22 63 91
22 64 119
22 65 104
22 66 139
22 67 21
22 68 136
22 69 151
22 70 122
22 71 109
22 72 79
22 73 29
22 74 191
22 75 80
22 76 155
22 77 34
22 78 180
22 79 231
22 80 117
22 81 140
22 82 85
22 83 171
22 84 88
22 85 149
22 86 167
22 87 89
22 88 88
22 89 131
22 90 126
23 24 93
23 25 216
23 26 83
23 27 110
23 28 138
23 29 204
23 30 121
23 31 132
23 32 86
23 33 27
23 34 96
23 35 40
23 36 174
23 37 216
23 38 114
23 39 248
23 40 99
23 41 187
23 42 32
23 43 7
23 44 47
23 45 169
23 46 165
23 47 239
23 48 130
23 49 82
23 50 258
23 51 38
23 52 103
23 53 136
23 54 24
23 55 244
23 56 254
23 57 160
23 58 8
23 59 228
23 60 230
23 61 139
23 62 176
23 63 255
23 64 151
23 65 30
23 66 38
23 67 110
23 68 194
23 69 10
23 70 130
23 71 39
23 72 167
23 73 197
23 74 124
23 75 174
23 76 221
23 77 85
23 78 112
23 79 240
23 80 41
23 81 250
23 82 115
23 83 8
23 84 62
23 85 200
23 86 266
23 87 114
23 88 224
23 89 238
23 90 171
24 25 58
24 26 60
24 27 179
24 28 125
24 29 95
24 30 174
24 31 179
24 32 47
24 33 226
24 34 171
24 35 36
24 36 227
24 37 245
24 38 230
24 39 214
24 40 169
24 41 178
24 42 108
24 43 269
24 44 7
24 45 2
24 46 247
24 47 134
24 48 102
24 49 106
24 50 152
24 51 236
24 52 161
24 53 253
24 54 138
24 55 215
24 56 54
24 57 191
24 58 137
24 59 21
24 60 89
24 61 35
24 62 248
24 63 245
24 64 117
24 65 29
24 66 182
24 67 184
24 68 122
24 69 209
24 70 134
24 71 41
24 72 105
24 73 181
24 74 104
24 75 154
24 76 151
24 77 138
24 78 123
24 79 67
24 80 229
24 81 231
24 82 35
24 83 75
24 84 122
24 85 97
24 86 148
24 87 72
24 88 139
24 89 207
24 90 220
25 26 214
25 27 205
25 28 159
25 29 85
25 30 237
25 31 247
25 32 120
25 33 62
25 34 79
25 35 1
25 36 2
25 37 193
25 38 93
25 39 83
25 40 212
25 41 107
25 42 212
25 43 244
25 44 121
25 45 149
25 46 53
25 47 90
25 48 21
25 49 12
25 50 197
25 51 170
25 52 167
25 53 50
25 54 75
25 55 33
25 56 190
25 57 110
25 58 95
25 59 124
25 60 134
25 61 148
25 62 162
25 63 50
25 64 171
25 65 178
25 66 96
25 67 105
25 68 116
25 69 47
25 70 162
25 71 1
25 72 242
25 73 218
25 74 2
25 75 67
25 76 62
25 77 17
25 78 54
25 79 263
25 80 196
25 81 66
25 82 258
25 83 110
25 84 248
25 85 109
25 86 134
25 87 15
25 88 232
25 89 108
25 90 260
26 27 28
26 28 9
26 29 183
26 30 11
26 31 191
26 32 39
26 33 83
26 34 204
26 35 166
26 36 246
26 37 239
26 38 269
26 39 175
26 40 74
26 41 95
26 42 252
26 43 215
26 44 49
26 45 63
26 46 184
26 47 210
26 48 238
26 49 225
26 50 159
26 51 262
26 52 178
26 53 150
26 54 80
26 55 125
26 56 117
26 57 14
26 58 245
26 59 182
26 60 176
26 61 56
26 62 266
26 63 57
26 64 193
26 65 48
26 66 9
26 67 81
26 68 72
26 69 74
26 70 250
26 71 245
26 72 88
26 73 155
26 74 239
26 75 170
26 76 258
26 77 79
26 78 242
26 79 205
26 80 244
26 81 217
26 82 234
26 83 7
26 84 263
26 85 146
26 86 99
26 87 169
26 88 75
26 89 214
26 90 46
27 28 261
27 29 118
27 30 183
27 31 95
27 32 145
27 33 177
27 34 69
27 35 265
27 36 221
27 37 100
27 38 95
27 39 205
27 40 101
27 41 212
27 42 119
27 43 250
27 44 168
27 45 122
27 46 207
27 47 231
27 48 72
27 49 57
27 50 134
27 51 212
27 52 227
27 53 210
27 54 27
27 55 185
27 56 80
27 57 257
27 58 7
27 59 126
27 60 178
27 61 214
27 62 227
27 63 124
27 64 213
27 65 37
27 66 177
27 67 168
27 68 162
27 69 40
27 70 268
27 71 164
27 72 238
27 73 49
27 74 170
27 75 171
27 76 246
27 77 78
27 78 52
27 79 97
27 80 229
27 81 233
27 82 259
27 83 222
27 84 224
27 85 112
27 86 252
27 87 114
27 88 11
27 89 266
27 90 108
28 29 69
28 30 60
28 31 230
28 32 239
28 33 162
28 34 36
28 35 102
28 36 135
28 37 141
28 38 127
28 39 103
28 40 71
28 41 66
28 42 99
28 43 163
28 44 183
28 45 53
28 46 94
28 47 126
28 48 5
28 49 2
28 50 245
28 51 28
28 52 50
28 53 136
28 54 44
28 55 30
28 56 79
28 57 85
28 58 246
28 59 56
28 60 199
28 61 236
28 62 166
28 63 190
28 64 151
28 65 246
28 66 72
28 67 186
28 68 90
28 69 37
28 70 177
28 71 175
28 72 7
28 73 111
28 74 251
28 75 57
28 76 244
28 77 234
28 78 90
28 79 69
28 80 258
28 81 231
28 82 193
28 83 70
28 84 207
28 85 173
28 86 234
28 87 233
28 88 78
28 89 125
28 90 131
29 30 203
29 31 38
29 32 79
29 33 31
29 34 127
29 35 240
29 36 160
29 37 210
29 38 238
29 39 181
29 40 164
29 41 10
29 42 110
29 43 160
29 44 262
29 45 102
29 46 243
29 47 68
29 48 82
29 49 222
29 50 267
29 51 239
29 52 147
29 53 0
29 54 160
29 55 242
29 56 140
29 57 37
29 58 215
29 59 198
29 60 55
29 61 6
29 62 228
29 63 233
29 64 181
29 65 206
29 66 143
29 67 212
29 68 195
29 69 254
29 70 47
29 71 40
29 72 128
29 73 174
29 74 6
29 75 122
29 76 107
29 77 152
29 78 78
29 79 65
29 80 144
29 81 249
29 82 112
29 83 197
29 84 12
29 85 176
29 86 245
29 87 10
29 88 213
29 89 226
29 90 147
30 31 159
30 32 35
30 33 32
30 34 62
30 35 185
30 36 240
30 37 241
30 38 193
30 39 172
30 40 265
30 41 254
30 42 262
30 43 3
30 44 17
30 45 186
30 46 194
30 47 7
30 48 184
30 49 25
30 50 181
30 51 3
30 52 214
30 53 250
30 54 219
30 55 51
30 56 144
30 57 168
30 58 212
30 59 66
30 60 150
30 61 237
30 62 100
30 63 151
30 64 68
30 65 117
30 66 64
30 67 199
30 68 180
30 69 243
30 70 207
30 71 94
30 72 107
30 73 218
30 74 204
30 75 202
30 76 134
30 77 150
30 78 24
30 79 206
30 80 227
30 81 60
30 82 163
30 83 34
30 84 20
30 85 57
30 86 247
30 87 87
30 88 42
30 89 119
30 90 99
31 32 189
31 33 58
31 34 235
31 35 11
31 36 209
31 37 237
31 38 211
31 39 158
31 40 79
31 41 19
31 42 56
31 43 155
31 44 208
31 45 133
31 46 82
31 47 198
31 48 68
31 49 0
31 50 128
31 51 76
31 52 241
31 53 28
31 54 76
31 55 223
31 56 226
31 57 239
31 58 135
31 59 179
31 60 251
31 61 148
31 62 21
31 63 244
31 64 220
31 65 233
31 66 115
31 67 32
31 68 79
31 69 11
31 70 83
31 71 170
31 72 19
31 73 85
31 74 6
31 75 104
31 76 3
31 77 97
31 78 222
31 79 16
31 80 13
31 81 181
31 82 73
31 83 205
31 84 195
31 85 123
31 86 245
31 87 226
31 88 88
31 89 73
31 90 47
32 33 115
32 34 97
32 35 235
32 36 2
32 37 19
32 38 206
32 39 123
32 40 218
32 41 38
32 42 250
32 43 3
32 44 156
32 45 196
32 46 164
32 47 245
32 48 70
32 49 93
32 50 191
32 51 49
32 52 258
32 53 218
32 54 124
32 55 175
32 56 253
32 57 94
32 58 206
32 59 198
32 60 104
32 61 252
32 62 246
32 63 133
32 64 83
32 65 206
32 66 259
32 67 49
32 68 95
32 69 211
32 70 111
32 71 244
32 72 96
32 73 143
32 74 73
32 75 100
32 76 125
32 77 22
32 78 164
32 79 31
32 80 133
32 81 2
32 82 54
32 83 62
32 84 143
32 85 267
32 86 267
32 87 260
32 88 118
32 89 177
32 90 162
33 34 20
33 35 240
33 36 233
33 37 25
33 38 186
33 39 227
33 40 187
33 41 80
33 42 128
33 43 62
33 44 215
33 45 110
33 46 142
33 47 155
33 48 202
33 49 155
33 50 256
33 51 39
33 52 123
33 53 126
33 54 236
33 55 131
33 56 126
33 57 180
33 58 146
33 59 168
33 60 125
33 61 60
33 62 186
33 63 116
33 64 239
33 65 217
33 66 56
33 67 73
33 68 20
33 69 106
33 70 48
33 71 243
33 72 59
33 73 253
33 74 94
33 75 31
33 76 217
33 77 167
33 78 132
33 79 156
33 80 194
33 81 223
33 82 150
33 83 259
33 84 255
33 85 29
33 86 110
33 87 208
33 88 192
33 89 117
33 90 11
34 35 223
34 36 168
34 37 112
34 38 195
34 39 231
34 40 1
34 41 25
34 42 183
34 43 265
34 44 190
34 45 266
34 46 230
34 47 97
34 48 7
34 49 205
34 50 41
34 51 43
34 52 153
34 53 28
34 54 110
34 55 247
34 56 210
34 57 62
34 58 30
34 59 105
34 60 265
34 61 115
34 62 220
34 63 203
34 64 160
34 65 199
34 66 40
34 67 129
34 68 198
34 69 98
34 70 17
34 71 150
34 72 140
34 73 261
34 74 112
34 75 19
34 76 215
34 77 15
34 78 262
34 79 137
34 80 84
34 81 104
34 82 35
34 83 61
34 84 53
34 85 224
34 86 106
34 87 245
34 88 198
34 89 231
34 90 22
35 36 195
35 37 64
35 38 93
35 39 156
35 40 107
35 41 232
35 42 99
35 43 48
35 44 41
35 45 202
35 46 209
35 47 245
35 48 166
35 49 118
35 50 146
35 51 42
35 52 19
35 53 187
35 54 19
35 55 23
35 56 131
35 57 253
35 58 64
35 59 190
35 60 26
35 61 117
35 62 90
35 63 136
35 64 146
35 65 31
35 66 152
35 67 216
35 68 119
35 69 196
35 70 25
35 71 157
35 72 12
35 73 118
35 74 30
35 75 158
35 76 268
35 77 114
35 78 6
35 79 232
35 80 231
35 81 136
35 82 18
35 83 108
35 84 45
35 85 249
35 86 234
35 87 12
35 88 112
35 89 8
35 90 171
36 37 51
36 38 32
36 39 257
36 40 152
36 41 81
36 42 21
36 43 155
36 44 92
36 45 233
36 46 109
36 47 165
36 48 243
36 49 155
36 50 110
36 51 174
36 52 225
36 53 265
36 54 152
36 55 29
36 56 212
36 57 254
36 58 48
36 59 9
36 60 64
36 61 221
36 62 105
36 63 224
36 64 17
36 65 106
36 66 159
36 67 18
36 68 140
36 69 254
36 70 29
36 71 106
36 72 219
36 73 132
36 74 241
36 75 126
36 76 134
36 77 44
36 78 171
36 79 38
36 80 34
36 81 114
36 82 105
36 83 49
36 84 164
36 85 46
36 86 131
36 87 11
36 88 98
36 89 45
36 90 216
37 38 60
37 39 167
37 40 212
37 41 99
37 42 190
37 43 97
37 44 244
37 45 181
37 46 119
37 47 80
37 48 129
37 49 183
37 50 110
37 51 80
37 52 78
37 53 220
37 54 37
37 55 195
37 56 259
37 57 199
37 58 54
37 59 60
37 60 40
37 61 247
37 62 220
37 63 26
37 64 247
37 65 261
37 66 200
37 67 169
37 68 142
37 69 183
37 70 267
37 71 243
37 72 145
37 73 254
37 74 230
37 75 17
37 76 155
37 77 234
37 78 36
37 79 70
37 80 168
37 81 264
37 82 187
37 83 2
37 84 208
37 85 57
37 86 156
37 87 267
37 88 146
37 89 4
37 90 154
38 39 197
38 40 42
38 41 59
38 42 171
38 43 221
38 44 73
38 45 150
38 46 62
38 47 79
38 48 108
38 49 162
38 50 200
38 51 64
38 52 227
38 53 259
38 54 31
38 55 94
38 56 128
38 57 190
38 58 128
38 59 178
38 60 134
38 61 241
38 62 264
38 63 182
38 64 243
38 65 240
38 66 146
38 67 149
38 68 191
38 69 59
38 70 75
38 71 212
38 72 70
38 73 41
38 74 224
38 75 168
38 76 77
38 77 13
38 78 72
38 79 256
38 80 83
38 81 28
38 82 153
38 83 5
38 84 3
38 85 183
38 86 163
38 87 257
38 88 129
38 89 218
38 90 80
39 40 164
39 41 87
39 42 0
39 43 86
39 44 244
39 45 48
39 46 115
39 47 160
39 48 144
39 49 22
39 50 162
39 51 0
39 52 106
39 53 76
39 54 258
39 55 138
39 56 136
39 57 164
39 58 119
39 59 82
39 60 94
39 61 73
39 62 147
39 63 161
39 64 224
39 65 236
39 66 138
39 67 6
39 68 186
39 69 148
39 70 198
39 71 160
39 72 41
39 73 136
39 74 151
39 75 184
39 76 28
39 77 158
39 78 87
39 79 68
39 80 118
39 81 162
39 82 29
39 83 34
39 84 74
39 85 195
39 86 43
39 87 157
39 88 52
39 89 28
39 90 175
40 41 234
40 42 142
40 43 164
40 44 86
40 45 90
40 46 144
40 47 215
40 48 53
40 49 169
40 50 119
40 51 206
40 52 84
40 53 88
40 54 106
40 55 161
40 56 220
40 57 189
40 58 160
40 59 188
40 60 101
40 61 72
40 62 94
40 63 257
40 64 74
40 65 14
40 66 62
40 67 268
40 68 51
40 69 227
40 70 177
40 71 62
40 72 183
40 73 36
40 74 183
40 75 183
40 76 252
40 77 192
40 78 43
40 79 0
40 80 240
40 81 125
40 82 172
40 83 4
40 84 195
40 85 236
40 86 198
40 87 178
40 88 51
40 89 206
40 90 62
41 42 201
41 43 134
41 44 113
41 45 210
41 46 29
41 47 102
41 48 27
41 49 141
41 50 68
41 51 0
41 52 209
41 53 147
41 54 151
41 55 32
41 56 124
41 57 191
41 58 224
41 59 178
41 60 211
41 61 2
41 62 256
41 63 76
41 64 252
41 65 250
41 66 174
41 67 247
41 68 195
41 69 168
41 70 257
41 71 99
41 72 107
41 73 4
41 74 22
41 75 46
41 76 194
41 77 177
41 78 60
41 79 31
41 80 172
41 81 233
41 82 92
41 83 235
41 84 260
41 85 88
41 86 48
41 87 167
41 88 65
41 89 67
41 90 246
42 43 64
42 44 7
42 45 33
42 46 187
42 47 220
42 48 22
42 49 42
42 50 3
42 51 239
42 52 84
42 53 1
42 54 74
42 55 169
42 56 124
42 57 168
42 58 59
42 59 90
42 60 126
42 61 222
42 62 128
42 63 111
42 64 39
42 65 8
42 66 199
42 67 20
42 68 268
42 69 238
42 70 91
42 71 168
42 72 265
42 73 230
42 74 203
42 75 184
42 76 88
42 77 227
42 78 191
42 79 212
42 80 211
42 81 222
42 82 194
42 83 8
42 84 6
42 85 145
42 86 138
42 87 155
42 88 146
42 89 249
42 90 219
43 44 103
43 45 138
43 46 225
43 47 3
43 48 0
43 49 209
43 50 39
43 51 12
43 52 66
43 53 20
43 54 25
43 55 140
43 56 44
43 57 164
43 58 208
43 59 3
43 60 20
43 61 215
43 62 241
43 63 246
43 64 243
43 65 106
43 66 101
43 67 6
43 68 154
43 69 138
43 70 59
43 71 57
43 72 110
43 73 145
43 74 25
43 75 75
43 76 229
43 77 205
43 78 175
43 79 182
43 80 268
43 81 248
43 82 100
43 83 36
43 84 75
43 85 146
43 86 221
43 87 7
43 88 219
43 89 32
43 90 173
44 45 186
44 46 29
44 47 2
44 48 133
44 49 40
44 50 253
44 51 142
44 52 20
44 53 120
44 54 147
44 55 51
44 56 214
44 57 133
44 58 255
44 59 188
44 60 37
44 61 252
44 62 185
44 63 203
44 64 23
44 65 59
44 66 46
44 67 153
44 68 88
44 69 1
44 70 115
44 71 211
44 72 240
44 73 163
44 74 0
44 75 112
44 76 244
44 77 213
44 78 163
44 79 243
44 80 161
44 81 215
44 82 174
44 83 249
44 84 48
44 85 141
44 86 36
44 87 251
44 88 226
44 89 241
44 90 175
45 46 145
45 47 32
45 48 222
45 49 131
45 50 26
45 51 206
45 52 247
45 53 162
45 54 144
45 55 6
45 56 92
45 57 23
45 58 240
45 59 3
45 60 36
45 61 52
45 62 186
45 63 58
45 64 30
45 65 82
45 66 32
45 67 146
45 68 158
45 69 127
45 70 166
45 71 167
45 72 202
45 73 34
45 74 163
45 75 59
45 76 188
45 77 181
45 78 198
45 79 28
45 80 61
45 81 159
45 82 180
45 83 93
45 84 177
45 85 84
45 86 62
45 87 190
45 88 258
45 89 177
45 90 45
46 47 108
46 48 49
46 49 122
46 50 265
46 51 263
46 52 71
46 53 39
46 54 247
46 55 49
46 56 235
46 57 150
46 58 232
46 59 4
46 60 50
46 61 266
46 62 204
46 63 78
46 64 62
46 65 49
46 66 230
46 67 268
46 68 261
46 69 227
46 70 26
46 71 43
46 72 66
46 73 99
46 74 134
46 75 215
46 76 228
46 77 28
46 78 45
46 79 195
46 80 178
46 81 71
46 82 19
46 83 151
46 84 30
46 85 47
46 86 240
46 87 55
46 88 11
46 89 41
46 90 257
47 48 144
47 49 107
47 50 51
47 51 158
47 52 110
47 53 181
47 54 72
47 55 162
47 56 195
47 57 158
47 58 203
47 59 26
47 60 268
47 61 149
47 62 256
47 63 32
47 64 261
47 65 248
47 66 54
47 67 107
47 68 33
47 69 137
47 70 8
47 71 32
47 72 59
47 73 243
47 74 18
47 75 126
47 76 130
47 77 136
47 78 60
47 79 46
47 80 196
47 81 16
47 82 93
47 83 194
47 84 110
47 85 171
47 86 242
47 87 43
47 88 148
47 89 260
47 90 19
48 49 115
48 50 20
48 51 250
48 52 252
48 53 28
48 54 81
48 55 173
48 56 108
48 57 206
48 58 27
48 59 100
48 60 143
48 61 0
48 62 209
48 63 37
48 64 42
48 65 151
48 66 174
48 67 145
48 68 227
48 69 80
48 70 71
48 71 18
48 72 164
48 73 5
48 74 8
48 75 99
48 76 14
48 77 228
48 78 89
48 79 72
48 80 24
48 81 25
48 82 260
48 83 253
48 84 253
48 85 13
48 86 212
48 87 145
48 88 219
48 89 134
48 90 168
49 50 49
49 51 59
49 52 228
49 53 213
49 54 22
49 55 75
49 56 229
49 57 244
49 58 33
49 59 146
49 60 145
49 61 173
49 62 213
49 63 178
49 64 75
49 65 81
49 66 123
49 67 83
49 68 167
49 69 176
49 70 151
49 71 136
49 72 167
49 73 190
49 74 29
49 75 44
49 76 12
49 77 251
49 78 15
49 79 90
49 80 233
49 81 218
49 82 220
49 83 255
49 84 88
49 85 116
49 86 168
49 87 55
49 88 194
49 89 227
49 90 180
50 51 177
50 52 56
50 53 75
50 54 41
50 55 202
50 56 99
50 57 43
50 58 7
50 59 175
50 60 188
50 61 77
50 62 212
50 63 87
50 64 16
50 65 227
50 66 41
50 67 117
50 68 130
50 69 237
50 70 5
50 71 6
50 72 123
50 73 72
50 74 209
50 75 263
50 76 190
50 77 51
50 78 252
50 79 269
50 80 68
50 81 86
50 82 236
50 83 57
50 84 90
50 85 47
50 86 41
50 87 0
50 88 8
50 89 85
50 90 247
51 52 268
51 53 161
51 54 6
51 55 199
51 56 96
51 57 108
51 58 33
51 59 81
51 60 182
51 61 209
51 62 40
51 63 257
51 64 50
51 65 153
51 66 223
51 67 13
51 68 207
51 69 75
51 70 236
51 71 192
51 72 84
51 73 100
51 74 230
51 75 13
51 76 7
51 77 36
51 78 222
51 79 69
51 80 231
51 81 266
51 82 33
51 83 199
51 84 40
51 85 57
51 86 60
51 87 249
51 88 54
51 89 68
51 90 213
52 53 19
52 54 73
52 55 102
52 56 139
52 57 41
52 58 89
52 59 9
52 60 205
52 61 216
52 62 194
52 63 204
52 64 253
52 65 105
52 66 196
52 67 261
52 68 75
52 69 104
52 70 30
52 71 201
52 72 244
52 73 200
52 74 83
52 75 200
52 76 70
52 77 263
52 78 57
52 79 225
52 80 222
52 81 139
52 82 110
52 83 140
52 84 190
52 85 6
52 86 69
52 87 76
52 88 125
52 89 129
52 90 78
53 54 194
53 55 120
53 56 9
53 57 61
53 58 196
53 59 191
53 60 55
53 61 73
53 62 132
53 63 262
53 64 224
53 65 258
53 66 261
53 67 230
53 68 257
53 69 212
53 70 39
53 71 259
53 72 123
53 73 240
53 74 3
53 75 154
53 76 97
53 77 46
53 78 242
53 79 1
53 80 75
53 81 231
53 82 43
53 83 79
53 84 62
53 85 231
53 86 74
53 87 18
53 88 119
53 89 177
53 90 169
54 55 227
54 56 222
54 57 23
54 58 199
54 59 36
54 60 190
54 61 133
54 62 35
54 63 174
54 64 57
54 65 164
54 66 246
54 67 98
54 68 229
54 69 183
54 70 129
54 71 105
54 72 253
54 73 57
54 74 5
54 75 232
54 76 2
54 77 239
54 78 44
54 79 112
54 80 82
54 81 187
54 82 189
54 83 213
54 84 202
54 85 215
54 86 120
54 87 104
54 88 182
54 89 98
54 90 90
55 56 242
55 57 22
55 58 193
55 59 217
55 60 252
55 61 218
55 62 264
55 63 214
55 64 62
55 65 79
55 66 226
55 67 240
55 68 43
55 69 259
55 70 123
55 71 202
55 72 237
55 73 177
55 74 237
55 75 70
55 76 191
55 77 228
55 78 237
55 79 12
55 80 209
55 81 89
55 82 99
55 83 116
55 84 146
55 85 231
55 86 72
55 87 177
55 88 165
55 89 235
55 90 257
56 57 29
56 58 248
56 59 20
56 60 212
56 61 182
56 62 210
56 63 104
56 64 79
56 65 31
56 66 223
56 67 254
56 68 100
56 69 158
56 70 41
56 71 206
56 72 216
56 73 189
56 74 120
56 75 227
56 76 129
56 77 56
56 78 101
56 79 203
56 80 162
56 81 109
56 82 35
56 83 160
56 84 93
56 85 97
56 86 128
56 87 219
56 88 79
56 89 263
56 90 23
57 58 138
57 59 101
57 60 44
57 61 219
57 62 3
57 63 0
57 64 20
57 65 113
57 66 17
57 67 52
57 68 232
57 69 261
57 70 166
57 71 254
57 72 50
57 73 49
57 74 213
57 75 241
57 76 268
57 77 201
57 78 61
57 79 34
57 80 222
57 81 24
57 82 133
57 83 102
57 84 133
57 85 203
57 86 205
57 87 170
57 88 91
57 89 214
57 90 6
58 59 263
58 60 87
58 61 232
58 62 46
58 63 266
58 64 31
58 65 84
58 66 225
58 67 216
58 68 118
58 69 99
58 70 162
58 71 208
58 72 106
58 73 209
58 74 238
58 75 92
58 76 23
58 77 86
58 78 220
58 79 211
58 80 174
58 81 86
58 82 173
58 83 140
58 84 266
58 85 109
58 86 202
58 87 76
58 88 51
58 89 159
58 90 28
59 60 22
59 61 36
59 62 15
59 63 66
59 64 121
59 65 76
59 66 46
59 67 136
59 68 58
59 69 256
59 70 193
59 71 114
59 72 222
59 73 5
59 74 84
59 75 103
59 76 95
59 77 218
59 78 197
59 79 44
59 80 16
59 81 175
59 82 108
59 83 262
59 84 13
59 85 151
59 86 221
59 87 253
59 88 197
59 89 7
59 90 225
60 61 99
60 62 5
60 63 269
60 64 21
60 65 37
60 66 9
60 67 136
60 68 215
60 69 114
60 70 38
60 71 243
60 72 253
60 73 253
60 74 31
60 75 34
60 76 36
60 77 210
60 78 12
60 79 9
60 80 93
60 81 208
60 82 66
60 83 251
60 84 84
60 85 76
60 86 109
60 87 35
60 88 216
60 89 46
60 90 138
61 62 153
61 63 127
61 64 236
61 65 255
61 66 152
61 67 180
61 68 165
61 69 16
61 70 123
61 71 74
61 72 194
61 73 218
61 74 149
61 75 237
61 76 133
61 77 118
61 78 184
61 79 74
61 80 133
61 81 246
61 82 157
61 83 161
61 84 83
61 85 146
61 86 144
61 87 45
61 88 85
61 89 38
61 90 58
62 63 223
62 64 212
62 65 140
62 66 53
62 67 269
62 68 94
62 69 4
62 70 95
62 71 23
62 72 199
62 73 221
62 74 120
62 75 15
62 76 85
62 77 129
62 78 76
62 79 34
62 80 26
62 81 135
62 82 54
62 83 235
62 84 10
62 85 134
62 86 76
62 87 258
62 88 19
62 89 262
62 90 251
63 64 70
63 65 117
63 66 181
63 67 240
63 68 186
63 69 157
63 70 242
63 71 159
63 72 154
63 73 87
63 74 56
63 75 163
63 76 1
63 77 132
63 78 239
63 79 18
63 80 115
63 81 154
63 82 63
63 83 155
63 84 96
63 85 213
63 86 38
63 87 106
63 88 96
63 89 184
63 90 153
64 65 231
64 66 241
64 67 150
64 68 230
64 69 36
64 70 112
64 71 65
64 72 128
64 73 73
64 74 208
64 75 23
64 76 77
64 77 217
64 78 155
64 79 182
64 80 119
64 81 9
64 82 206
64 83 163
64 84 23
64 85 151
64 86 215
64 87 60
64 88 167
64 89 36
64 90 132
65 66 4
65 67 153
65 68 196
65 69 102
65 70 11
65 71 112
65 72 142
65 73 142
65 74 139
65 75 78
65 76 28
65 77 268
65 78 197
65 79 194
65 80 78
65 81 84
65 82 152
65 83 242
65 84 33
65 85 6
65 86 206
65 87 216
65 88 158
65 89 244
65 90 201
66 67 12
66 68 15
66 69 39
66 70 180
66 71 250
66 72 104
66 73 155
66 74 86
66 75 213
66 76 120
66 77 169
66 78 158
66 79 22
66 80 212
66 81 179
66 82 32
66 83 27
66 84 169
66 85 146
66 86 150
66 87 77
66 88 63
66 89 126
66 90 107
67 68 58
67 69 159
67 70 202
67 71 123
67 72 245
67 73 190
67 74 169
67 75 99
67 76 116
67 77 245
67 78 144
67 79 224
67 80 190
67 81 59
67 82 160
67 83 183
67 84 131
67 85 234
67 86 196
67 87 174
67 88 186
67 89 43
67 90 245
68 69 85
68 70 128
68 71 229
68 72 32
68 73 181
68 74 31
68 75 192
68 76 173
68 77 262
68 78 269
68 79 253
68 80 113
68 81 66
68 82 69
68 83 89
68 84 38
68 85 100
68 86 162
68 87 25
68 88 169
68 89 4
68 90 92
69 70 29
69 71 73
69 72 24
69 73 129
69 74 11
69 75 142
69 76 20
69 77 234
69 78 54
69 79 249
69 80 197
69 81 169
69 82 102
69 83 1
69 84 196
69 85 174
69 86 145
69 87 188
69 88 15
69 89 260
69 90 206
70 71 152
70 72 142
70 73 202
70 74 80
70 75 5
70 76 129
70 77 218
70 78 122
70 79 173
70 80 118
70 81 255
70 82 127
70 83 267
70 84 53
70 85 225
70 86 112
70 87 215
70 88 43
70 89 55
70 90 59
71 72 28
71 73 137
71 74 87
71 75 78
71 76 218
71 77 58
71 78 161
71 79 76
71 80 92
71 81 147
71 82 123
71 83 84
71 84 208
71 85 153
71 86 144
71 87 8
71 88 201
71 89 158
71 90 135
72 73 98
72 74 221
72 75 107
72 76 73
72 77 74
72 78 8
72 79 243
72 80 89
72 81 145
72 82 197
72 83 212
72 84 2
72 85 147
72 86 168
72 87 120
72 88 4
72 89 159
72 90 253
73 74 70
73 75 67
73 76 201
73 77 54
73 78 134
73 79 45
73 80 16
73 81 146
73 82 243
73 83 95
73 84 146
73 85 166
73 86 211
73 87 35
73 88 112
73 89 180
73 90 248
74 75 163
74 76 86
74 77 132
74 78 11
74 79 249
74 80 255
74 81 168
74 82 232
74 83 75
74 84 125
74 85 192
74 86 55
74 87 21
74 88 131
74 89 106
74 90 207
75 76 51
75 77 102
75 78 31
75 79 132
75 80 46
75 81 176
75 82 82
75 83 199
75 84 12
75 85 168
75 86 80
75 87 183
75 88 101
75 89 256
75 90 18
76 77 85
76 78 9
76 79 32
76 80 97
76 81 39
76 82 73
76 83 223
76 84 64
76 85 257
76 86 98
76 87 32
76 88 138
76 89 50
76 90 168
77 78 147
77 79 47
77 80 252
77 81 210
77 82 65
77 83 217
77 84 230
77 85 184
77 86 18
77 87 217
77 88 60
77 89 172
77 90 200
78 79 211
78 80 156
78 81 229
78 82 114
78 83 219
78 84 28
78 85 125
78 86 53
78 87 8
78 88 61
78 89 16
78 90 36
79 80 81
79 81 197
79 82 126
79 83 268
79 84 65
79 85 116
79 86 230
79 87 204
79 88 255
79 89 198
79 90 79
80 81 74
80 82 11
80 83 58
80 84 235
80 85 11
80 86 206
80 87 238
80 88 28
80 89 25
80 90 101
81 82 191
81 83 152
81 84 143
81 85 229
81 86 117
81 87 155
81 88 199
81 89 197
81 90 51
82 83 259
82 84 107
82 85 119
82 86 186
82 87 142
82 88 25
82 89 255
82 90 81
83 84 254
83 85 244
83 86 183
83 87 61
83 88 77
83 89 154
83 90 146
84 85 144
84 86 128
84 87 123
84 88 6
84 89 195
84 90 250
85 86 72
85 87 67
85 88 268
85 89 10
85 90 116
86 87 39
86 88 40
86 89 43
86 90 106
87 88 257
87 89 83
87 90 174
88 89 263
88 90 221
89 90 34
